(set-info :smt-lib-version 2.6)
(set-logic QF_BV)
(set-info :source |
 Patrice Godefroid, SAGE (systematic dynamic test generation)
 For more information: http://research.microsoft.com/en-us/um/people/pg/public_psfiles/ndss2008.pdf
|)
(set-info :category "industrial")
(set-info :status sat)
(declare-fun T1_8228 () (_ BitVec 8))
(declare-fun T1_8224 () (_ BitVec 8))
(declare-fun T2_7832 () (_ BitVec 16))
(declare-fun T1_7823 () (_ BitVec 8))
(declare-fun T2_8226 () (_ BitVec 16))
(declare-fun T1_8248 () (_ BitVec 8))
(declare-fun T4_7824 () (_ BitVec 32))
(declare-fun T1_8266 () (_ BitVec 8))
(declare-fun T1_8281 () (_ BitVec 8))
(declare-fun T1_8299 () (_ BitVec 8))
(declare-fun T1_8226 () (_ BitVec 8))
(declare-fun T1_8227 () (_ BitVec 8))
(declare-fun T1_7832 () (_ BitVec 8))
(declare-fun T1_7833 () (_ BitVec 8))
(declare-fun T1_7824 () (_ BitVec 8))
(declare-fun T1_7825 () (_ BitVec 8))
(declare-fun T1_7826 () (_ BitVec 8))
(declare-fun T1_7827 () (_ BitVec 8))
(assert (let ((?v_2 ((_ zero_extend 24) T1_8228)) (?v_14 ((_ zero_extend 24) T1_8224)) (?v_4 ((_ zero_extend 16) T2_7832)) (?v_1 ((_ zero_extend 24) T1_7823))) (let ((?v_5 (bvsub ?v_1 (_ bv8 32)))) (let ((?v_0 (bvsub (bvadd (bvadd (bvadd (bvadd ?v_5 (_ bv4263047 32)) ?v_4) (_ bv7 32)) ?v_14) (_ bv4263013 32)))) (let ((?v_15 (bvadd ?v_0 (_ bv4263016 32)))) (let ((?v_16 (bvsub (bvadd ?v_15 ?v_2) (_ bv1 32))) (?v_17 (bvadd ?v_0 (_ bv4263034 32))) (?v_13 ((_ zero_extend 16) T2_8226))) (let ((?v_12 (bvadd ?v_13 (bvsub (_ bv4294967295 32) ?v_2))) (?v_11 ((_ zero_extend 24) T1_8248))) (let ((?v_10 (bvadd ?v_12 (bvsub (_ bv4294967295 32) ?v_11))) (?v_9 ((_ zero_extend 24) T1_8266))) (let ((?v_8 (bvadd ?v_10 (bvsub (_ bv4294967295 32) ?v_9))) (?v_7 ((_ zero_extend 24) T1_8281))) (let ((?v_6 (bvadd ?v_8 (bvsub (_ bv4294967295 32) ?v_7))) (?v_3 (bvadd ?v_1 (_ bv1 32)))) (and true (= T4_7824 (bvor (bvshl (bvor (bvshl (bvor (bvshl ((_ zero_extend 24) T1_7827) (_ bv8 32)) ((_ zero_extend 24) T1_7826)) (_ bv8 32)) ((_ zero_extend 24) T1_7825)) (_ bv8 32)) ((_ zero_extend 24) T1_7824))) (= T2_7832 (bvor (bvshl ((_ zero_extend 8) T1_7833) (_ bv8 16)) ((_ zero_extend 8) T1_7832))) (= T2_8226 (bvor (bvshl ((_ zero_extend 8) T1_8227) (_ bv8 16)) ((_ zero_extend 8) T1_8226))) (not (= ?v_17 ?v_16)) (bvule (bvadd (bvadd ?v_3 (_ bv4263036 32)) (_ bv2 32)) (_ bv4263862 32)) (= (bvadd ?v_6 (bvsub (_ bv4294967295 32) ((_ zero_extend 24) T1_8299))) (_ bv0 32)) (bvule (bvadd (bvadd (bvadd (bvadd ?v_3 (_ bv4263038 32)) ?v_4) (_ bv6 32)) (_ bv1 32)) (_ bv4263862 32)) (not (= (bvadd (bvadd ?v_5 (_ bv31 32)) (_ bv4263016 32)) (_ bv0 32))) (not (= ?v_6 (_ bv0 32))) (bvule (_ bv8 32) ?v_1) (not (= ?v_1 (_ bv1 32))) (bvule (bvadd ?v_7 (_ bv1 32)) ?v_8) (not (= ?v_8 (_ bv0 32))) (bvule ?v_5 (_ bv0 32)) (bvule (bvadd ?v_9 (_ bv1 32)) ?v_10) (not (= ?v_10 (_ bv0 32))) (bvult (_ bv0 32) ?v_4) (not (= ?v_4 (_ bv0 32))) (= T4_7824 ?v_4) (bvule (bvadd ?v_11 (_ bv1 32)) ?v_12) (not (= ?v_12 (_ bv0 32))) (not (= ?v_13 (_ bv0 32))) (bvule (bvadd ?v_2 (_ bv1 32)) ?v_13) (bvult ?v_14 (_ bv8 32)) (not (= ?v_14 (_ bv0 32))) (= ?v_14 (_ bv1 32)) (not (= ?v_15 (_ bv0 32))) (bvult (bvadd ?v_0 (_ bv4263030 32)) ?v_16) (bvule ?v_16 ?v_17))))))))))))
(check-sat)
(exit)
